
  32    4
  10   10   10   10

   0   0   0   0   0   3 2 7 20 
   3   1   1   0   1   1 3 
   6   0   4   1   6   1 4 
   6   0   5   5   4   2 11 5 
   2   2   0   5   5   1 6 
   9   0   5   5   6   1 8 
   5   0   6   4   3   1 8 
   7   4   0   4   3   1 9 
   9   3   3   3   0   2 24 10 
   5   4   0   2   5   1 12 
   4   3   7   3   0   1 12 
   5   4   1   7   0   1 13 
   6   0   8   5   5   2 23 14 
   1   0   1   3   3   1 15 
   7   7   4   0   4   1 16 
  10   1   0   5   4   1 17 
   6   5   0   2   3   1 18 
   4   4   0   5   4   1 19 
   3   4   6   2   0   1 21 
   4   0   2   6   3   1 21 
   2   6   4   6   0   1 22 
   6   8   0   4   3   2 31 25 
  10   0   5   5   4   2 31 25 
   1   2   4   3   0   1 25 
   3   2   4   0   4   1 26 
   1   4   3   0   4   1 27 
   2   0   2   2   4   1 28 
   8   6   2   2   0   1 29 
   4   4   7   4   0   1 30 
   2   0   3   7   5   1 32
   7   6   5   0   5   1 32
   0   0   0   0   0   0 
